n_res = 4;
rc = [ 18, 25, 11, 17 ];
n_tasks = 30;
d = [ 7, 8, 9, 3, 6, 4, 6, 8, 2, 5, 8, 4, 10, 4, 4, 4, 1, 4, 2, 2, 2, 1, 9, 5, 4, 7, 4, 8, 7, 4 ];
rr = [| 0, 0, 8, 0, 0, 0, 0, 0, 6, 0, 0, 0, 0, 0, 0, 4, 0, 7, 0, 2, 0, 4, 5, 0, 0, 2, 0, 0, 10, 0
      | 0, 8, 0, 3, 0, 0, 0, 0, 0, 0, 8, 7, 7, 10, 0, 0, 0, 0, 3, 0, 0, 0, 0, 0, 0, 0, 0, 0, 0, 0
      | 10, 0, 0, 0, 10, 1, 0, 1, 0, 10, 0, 0, 0, 0, 0, 0, 8, 0, 0, 0, 0, 0, 0, 0, 0, 0, 0, 0, 0, 0
      | 0, 0, 0, 0, 0, 0, 3, 0, 0, 0, 0, 0, 0, 0, 6, 0, 0, 0, 0, 0, 6, 0, 0, 5, 9, 0, 10, 8, 0, 8 |];
suc = [ { 2 }, 
        { 3 }, 
        { 4 }, 
        { 5 }, 
        { 6 }, 
        { 7 }, 
        { 8 }, 
        { 9 }, 
        { 10 }, 
        { 11 }, 
        { 12 }, 
        { 13 }, 
        { 14 }, 
        { 15 }, 
        { 16 }, 
        { 17 }, 
        { 18 }, 
        { 19 }, 
        { 20 }, 
        { 21 }, 
        { 22 }, 
        { 23 }, 
        { 24 }, 
        { 25 }, 
        { 26 }, 
        { 27 }, 
        { 28 }, 
        { 29 }, 
        { 30 }, 
        {  }]; 
